200
1000
209
209
209
207
206
206
205
205
204
204
202
202
202
202
202
201
200
199
198
196
196
195
194
192
192
191
190
189
188
188
186
185
184
184
183
183
182
182
181
180
179
178
177
177
177
177
177
176
176
175
174
174
174
174
173
173
172
172
170
169
168
167
166
165
164
162
162
161
161
160
160
160
160
159
158
157
157
157
156
156
155
155
155
154
154
154
153
152
151
151
150
149
146
146
146
145
144
143
143
142
142
140
140
138
133
132
131
131
130
130
126
125
125
124
123
122
122
120
120
119
118
118
115
115
113
113
111
111
111
111
111
111
111
109
109
109
108
108
107
107
105
105
105
105
105
102
101
101
101
101
100
99
99
98
97
97
97
97
96
95
95
93
92
91
91
91
90
90
89
89
89
88
84
84
83
83
83
82
82
82
82
80
80
80
80
78
78
78
78
78
77
75
75
75
74
74
73
73
73
72
